NAME : n80w160.003.690.tour
COMMENT : Length = 690
COMMENT : Found by LKH [Keld Helsgaun] Tue May  2 05:50:14 2017
TYPE : TOUR
DIMENSION : 81
TOUR_SECTION
1
41
53
62
16
13
42
23
49
52
79
68
63
45
64
35
4
3
6
44
38
66
30
80
51
59
24
61
25
73
40
17
57
26
14
5
27
74
69
76
9
15
21
36
19
50
31
54
32
67
47
60
75
34
20
72
56
58
7
8
10
2
29
48
71
70
33
37
77
12
43
55
46
28
18
39
22
65
78
81
11
-1
EOF
